c 103_3_checker.cnf
c
c field = 103
c formula set type = 3_checker
c
p cnf 4 46
198 
200 
202 
-196 
199 
201 
203 
-197 
198 
200 
202 
-206 
199 
201 
203 
-207 
200 
202 
206 
-198 
201 
203 
207 
-199 
200 
202 
206 
-208 
201 
203 
207 
-209 
202 
206 
208 
-200 
203 
207 
209 
-201 
114 
144 
174 
-84 
115 
145 
175 
-85 
114 
144 
174 
-234 
115 
145 
175 
-235 
144 
174 
234 
-114 
145 
175 
235 
-115 
144 
174 
234 
-264 
145 
175 
235 
-265 
174 
234 
264 
-144 
175 
235 
265 
-145 
174 
234 
264 
-294 
175 
235 
265 
-295 
234 
264 
294 
-174 
235 
265 
295 
-175 
234 
264 
294 
-324 
235 
265 
295 
-325 
108 
140 
172 
-76 
109 
141 
173 
-77 
108 
140 
172 
-236 
109 
141 
173 
-237 
140 
172 
236 
-108 
141 
173 
237 
-109 
140 
172 
236 
-268 
141 
173 
237 
-269 
172 
236 
268 
-140 
173 
237 
269 
-141 
148 
176 
232 
-260 
149 
177 
233 
-261 
176 
232 
260 
-148 
177 
233 
261 
-149 
176 
232 
260 
-288 
177 
233 
261 
-289 
232 
260 
288 
-176 
233 
261 
289 
-177 
232 
260 
288 
-316 
233 
261 
289 
-317 
